Maximize
    120 x1 + 170 x2 + 180 x3 + 240 x4 
Subject To
    c1 : 15 x1 + 20 x2 + 22 x3 + 30 x4 <= 1500
    c2 : 30 x1 + 40 x2 + 50 x3 + 60 x4 <= 2000
    c3 : x1 + 2 x2 + 2 x3 + 3 x4 <= 100
Bounds
10 <= x1 <= 20
10 <= x2 <= +inf
10 <= x3 <= +inf
10 <= x4 <= +inf
End
